
  22   10
  10   10   10   10   10   10   10   10   10   10

   0   0   0   0   0   0   0   0   0   0   0   7 2 4 5 7 8 17 21 
   2  10  10  10  10  10  10  10  10  10  10   3 16 15 3 
   2  10  10  10  10  10  10  10  10  10  10   3 11 10 6 
  10  10  10  10  10  10  10  10  10  10  10   3 16 15 6 
   3  10  10  10  10  10  10  10  10  10  10   2 10 6 
   1  10  10  10  10  10  10  10  10  10  10   4 20 14 13 9 
   5  10  10  10  10  10  10  10  10  10  10   3 15 13 9 
   3  10  10  10  10  10  10  10  10  10  10   1 9 
   4  10  10  10  10  10  10  10  10  10  10   1 12 
   1  10  10  10  10  10  10  10  10  10  10   1 12 
   3  10  10  10  10  10  10  10  10  10  10   1 12 
   1  10  10  10  10  10  10  10  10  10  10   1 18 
   7  10  10  10  10  10  10  10  10  10  10   1 19 
   4  10  10  10  10  10  10  10  10  10  10   1 19 
   8  10  10  10  10  10  10  10  10  10  10   1 18 
   8  10  10  10  10  10  10  10  10  10  10   1 18 
   7  10  10  10  10  10  10  10  10  10  10   1 18 
  10  10  10  10  10  10  10  10  10  10  10   1 22
  10  10  10  10  10  10  10  10  10  10  10   1 22
   8  10  10  10  10  10  10  10  10  10  10   1 22
   9  10  10  10  10  10  10  10  10  10  10   1 22
   0   0   0   0   0   0   0   0   0   0   0   0 
